Input file: instance_26.lp
Input data:
num_squadre(3).
player(1, portiere, attaccante).
player(2, portiere, difensore).
player(3, centrocampista, portiere).
player(4, centrocampista, portiere).
player(5, difensore, attaccante).
player(6, centrocampista, attaccante).
player(7, centrocampista, attaccante).
player(8, centrocampista, attaccante).
player(9, portiere, difensore).
player(10, portiere, difensore).
player(11, difensore, centrocampista).
player(12, portiere, attaccante).
player(13, difensore, attaccante).
player(14, attaccante, centrocampista).
player(15, attaccante, centrocampista).
player(16, centrocampista, attaccante).
player(17, attaccante, difensore).
player(18, difensore, centrocampista).
player(19, attaccante, centrocampista).
player(20, portiere, centrocampista).
player(21, portiere, attaccante).
player(22, attaccante, portiere).
player(23, attaccante, difensore).
player(24, centrocampista, attaccante).
player(25, portiere, centrocampista).
player(26, centrocampista, attaccante).
player(27, centrocampista, portiere).
player(28, portiere, difensore).
different_team(1, 2).
different_team(1, 3).
different_team(2, 3).


Output Clingo:
clingo version 5.7.1
Reading from ...ed-Reasoning-Project\Clingo\implASP.lp ...
Solving...
Answer: 1
assigned(1,3,attaccante) assigned(2,1,difensore) assigned(3,2,portiere) assigned(4,2,centrocampista) assigned(5,1,difensore) assigned(6,3,centrocampista) assigned(7,2,centrocampista) assigned(8,3,attaccante) assigned(9,1,portiere) assigned(10,1,difensore) assigned(11,1,centrocampista) assigned(12,1,attaccante) assigned(13,3,difensore) assigned(14,2,centrocampista) assigned(15,2,centrocampista) assigned(16,3,centrocampista) assigned(17,2,difensore) assigned(18,2,difensore) assigned(19,1,centrocampista) assigned(20,1,centrocampista) assigned(21,3,attaccante) assigned(22,2,attaccante) assigned(23,3,difensore) assigned(24,3,attaccante) assigned(25,3,portiere) assigned(26,3,centrocampista) assigned(27,2,centrocampista) assigned(28,2,difensore) total_penalty(1)
Optimization: 1
Answer: 1
assigned(1,2,attaccante) assigned(2,1,portiere) assigned(3,3,centrocampista) assigned(4,2,centrocampista) assigned(5,3,difensore) assigned(6,3,centrocampista) assigned(7,2,centrocampista) assigned(8,2,centrocampista) assigned(9,3,portiere) assigned(10,1,difensore) assigned(11,2,centrocampista) assigned(12,1,attaccante) assigned(13,3,attaccante) assigned(14,1,centrocampista) assigned(15,3,centrocampista) assigned(16,3,centrocampista) assigned(17,1,attaccante) assigned(18,3,centrocampista) assigned(19,1,centrocampista) assigned(20,1,centrocampista) assigned(21,3,attaccante) assigned(22,2,attaccante) assigned(23,2,difensore) assigned(24,3,centrocampista) assigned(25,3,centrocampista) assigned(26,3,centrocampista) assigned(27,1,centrocampista) assigned(28,2,portiere) total_penalty(1)
Optimization: 1
OPTIMUM FOUND

Models       : 2+
  Optimum    : yes
Optimization : 1
Calls        : 1
Time         : 76.641s (Solving: 76.63s 1st Model: 0.00s Unsat: 0.00s)
CPU Time     : 72.625s

Tempo di esecuzione Clingo: 76.67 secondi
